NAME : amz1411.133028_131528.tour
COMMENT : Cost = 133028_131528
COMMENT : Found by LKH-AMZ [Keld Helsgaun] Sun May 11 13:11:59 2025
COMMENT : TW viol.: 0 #: 0
TYPE : TOUR
DIMENSION : 142
TOUR_SECTION
5
76
62
1
89
37
102
74
35
27
135
68
79
140
20
84
103
134
96
113
52
138
111
131
73
34
119
114
48
106
23
64
127
75
65
26
10
19
29
126
49
85
36
4
9
93
122
86
25
81
142
125
12
132
108
98
59
115
56
41
22
88
16
139
38
14
130
21
87
97
77
70
11
129
133
110
13
47
30
6
136
39
78
18
107
44
60
46
95
94
72
137
15
55
104
53
117
69
123
141
121
116
33
120
43
101
58
7
100
31
2
92
63
105
128
118
67
82
40
32
80
42
99
83
51
90
57
91
45
50
54
17
3
28
71
24
61
112
124
8
109
66
-1
EOF
